% From JaCoP's nonogramRepository/data007.nin
 rows = 25;
 row_rule_len = 6;
 row_rules = array2d(1..rows, 1..row_rule_len, 
[
 0,0,0,0,0,7,
 0,0,0,0,0,11,
 0,0,0,4,4,3,
 0,3,4,3,2,3,
 0,4,11,1,1,4,
 0,0,3,4,7,5,
 0,3,3,6,1,1,
 0,3,2,2,5,1,
 3,2,2,7,1,1,
 0,3,5,4,3,2,
 0,2,1,7,6,2,
 0,0,10,2,2,3,
 0,0,7,1,3,3,
 0,0,1,4,7,4,
 0,0,0,0,0,17,
 0,0,0,1,6,8,
 0,0,1,3,3,2,
 0,0,1,2,2,1,
 0,1,2,2,1,1,
 0,0,1,1,7,2,
 1,1,5,3,3,1,
 1,6,1,1,7,2,
 0,1,8,2,10,1,
 0,0,5,5,5,9,
 3,2,4,4,3,5
]);

 cols = 30;
 col_rule_len = 7;
 col_rules = array2d(1..cols, 1..col_rule_len, 
[
 0,0,0,0,0,0,3,
 0,0,0,0,4,2,1,
 0,0,0,0,0,7,2,
 0,0,0,1,3,6,4,
 0,0,0,0,5,6,1,
 0,0,0,4,1,6,5,
 0,0,2,1,5,4,4,
 0,0,0,3,5,4,4,
 0,0,3,2,3,3,4,
 0,0,2,2,4,2,7,
 0,3,3,1,1,4,5,
 0,2,2,2,4,1,3,
 0,0,0,2,3,2,12,
 0,0,0,2,2,2,9,
 2,2,2,2,2,1,3,
 0,2,2,2,2,7,4,
 0,3,2,2,1,8,2,
 0,0,0,0,6,8,6,
 0,0,0,0,0,13,7,
 0,0,0,0,0,9,3,
 0,0,0,0,4,2,4,
 0,0,0,0,4,1,6,
 0,0,0,0,5,2,7,
 0,0,0,0,2,2,4,
 0,0,0,1,1,3,2,
 0,0,0,0,2,2,5,
 0,0,0,0,0,3,4,
 0,0,0,0,0,3,2,
 0,0,0,0,0,2,3,
 0,0,0,0,0,3,1
]);

